p cnf 74 244
1 2 0
-1 -2 0
3 4 5 6 0
-3 -4 0
-3 -5 0
-3 -6 0
-4 -5 0
-4 -6 0
-5 -6 0
7 8 0
-7 -8 0
9 10 11 0
-9 -10 0
-9 -11 0
-10 -11 0
12 13 14 0
-12 -13 0
-12 -14 0
-13 -14 0
15 16 17 0
-15 -16 0
-15 -17 0
-16 -17 0
18 19 20 21 0
-18 -19 0
-18 -20 0
-18 -21 0
-19 -20 0
-19 -21 0
-20 -21 0
22 23 24 25 0
-22 -23 0
-22 -24 0
-22 -25 0
-23 -24 0
-23 -25 0
-24 -25 0
26 27 28 0
-26 -27 0
-26 -28 0
-27 -28 0
29 30 31 32 0
-29 -30 0
-29 -31 0
-29 -32 0
-30 -31 0
-30 -32 0
-31 -32 0
33 34 35 0
-33 -34 0
-33 -35 0
-34 -35 0
36 37 38 39 0
-36 -37 0
-36 -38 0
-36 -39 0
-37 -38 0
-37 -39 0
-38 -39 0
40 41 42 43 0
-40 -41 0
-40 -42 0
-40 -43 0
-41 -42 0
-41 -43 0
-42 -43 0
44 45 0
-44 -45 0
46 47 0
-46 -47 0
48 49 0
-48 -49 0
50 51 52 53 0
-50 -51 0
-50 -52 0
-50 -53 0
-51 -52 0
-51 -53 0
-52 -53 0
54 55 0
-54 -55 0
56 57 58 0
-56 -57 0
-56 -58 0
-57 -58 0
59 60 0
-59 -60 0
61 62 0
-61 -62 0
63 64 0
-63 -64 0
65 66 67 68 0
-65 -66 0
-65 -67 0
-65 -68 0
-66 -67 0
-66 -68 0
-67 -68 0
69 70 71 0
-69 -70 0
-69 -71 0
-70 -71 0
72 73 74 0
-72 -73 0
-72 -74 0
-73 -74 0
-1 -15 0
-1 -40 0
-2 -41 0
-1 -56 0
-1 -61 0
-3 -7 0
-4 -8 0
-3 -9 0
-4 -10 0
-5 -11 0
-3 -18 0
-4 -19 0
-5 -20 0
-6 -21 0
-3 -33 0
-4 -34 0
-6 -35 0
-3 -44 0
-6 -45 0
-3 -48 0
-6 -49 0
-3 -59 0
-5 -60 0
-3 -61 0
-6 -62 0
-7 -9 0
-8 -10 0
-7 -15 0
-7 -33 0
-8 -34 0
-7 -36 0
-8 -37 0
-7 -50 0
-8 -51 0
-7 -72 0
-8 -73 0
-9 -15 0
-11 -16 0
-9 -40 0
-10 -41 0
-11 -42 0
-12 -36 0
-13 -37 0
-14 -38 0
-12 -61 0
-14 -63 0
-15 -50 0
-16 -52 0
-17 -53 0
-15 -54 0
-15 -65 0
-16 -67 0
-17 -68 0
-15 -72 0
-17 -74 0
-18 -22 0
-19 -23 0
-20 -24 0
-21 -25 0
-18 -50 0
-19 -51 0
-20 -52 0
-21 -53 0
-18 -54 0
-19 -55 0
-18 -69 0
-19 -70 0
-21 -71 0
-22 -40 0
-23 -41 0
-24 -42 0
-25 -43 0
-22 -54 0
-23 -55 0
-22 -59 0
-24 -60 0
-22 -65 0
-23 -66 0
-24 -67 0
-25 -68 0
-26 -44 0
-28 -45 0
-26 -56 0
-27 -57 0
-28 -58 0
-26 -59 0
-27 -60 0
-27 -63 0
-28 -64 0
-29 -33 0
-30 -34 0
-32 -35 0
-29 -36 0
-30 -37 0
-31 -38 0
-32 -39 0
-29 -48 0
-32 -49 0
-29 -54 0
-30 -55 0
-33 -48 0
-35 -49 0
-33 -65 0
-34 -66 0
-35 -68 0
-40 -65 0
-41 -66 0
-42 -67 0
-43 -68 0
-40 -72 0
-41 -73 0
-43 -74 0
-44 -48 0
-45 -49 0
-44 -56 0
-45 -58 0
-44 -59 0
-44 -72 0
-45 -74 0
-46 -59 0
-47 -64 0
-48 -56 0
-49 -58 0
-50 -61 0
-53 -62 0
-50 -65 0
-51 -66 0
-52 -67 0
-53 -68 0
-54 -56 0
-56 -61 0
-58 -62 0
-56 -72 0
-58 -74 0
-59 -61 0
-61 -65 0
-62 -68 0
-64 -74 0
